<SOLUTION>
<TOPOOPTDATA>
<HEADER>
 <COLUMN ID="    1">Iteration</COLUMN>
 <COLUMN ID="    2">Objective</COLUMN>
 <COLUMN ID="    3">Non-dimensional_Objective</COLUMN>
 <COLUMN ID="    4">OBJCC</COLUMN>
 <COLUMN ID="    5">Global_Von-Mises_Stress_Constraint</COLUMN>
 <COLUMN ID="    6">Global_Von-Mises_Stress_Constraint_Normalized</COLUMN>
 <COLUMN ID="    7">Global_Von-Mises_Stress_Constraint_Max</COLUMN>
 <UNITS>MPA</UNITS>
</HEADER>
<COLDATA>
              1  1.705021e-01                1              ---     5.615507e+02     5.615507e+00     1.000000e+02     
              2  1.663515e-01         0.975657          4.37776     5.353417e+02     5.353417e+00     1.000000e+02     
              3  1.587715e-01           0.9312          4.16102     5.115450e+02     5.115450e+00     1.000000e+02     
              4  1.564977e-01         0.917864          3.90579     4.891466e+02     4.891466e+00     1.000000e+02     
              5  1.557530e-01         0.913496          3.66931     4.664554e+02     4.664554e+00     1.000000e+02     
              6  1.537748e-01         0.901894          3.66437     4.651669e+02     4.651669e+00     1.000000e+02     
              7  1.555243e-01         0.912155          3.53146     4.520079e+02     4.520079e+00     1.000000e+02     
              8  1.536704e-01         0.901282          3.50505     4.493129e+02     4.493129e+00     1.000000e+02     
              9  1.544335e-01         0.905757          3.48808     4.483119e+02     4.483119e+00     1.000000e+02     
             10  1.539555e-01         0.902954          3.41921     4.416119e+02     4.416119e+00     1.000000e+02     
             11  1.544691e-01         0.905966          3.39462     4.391283e+02     4.391283e+00     1.000000e+02     
             12  1.540785e-01         0.903675          3.37715     4.374623e+02     4.374623e+00     1.000000e+02     
             13  1.541612e-01          0.90416          3.36852     4.367982e+02     4.367982e+00     1.000000e+02     
             14  1.543090e-01         0.905027          3.36515     4.364188e+02     4.364188e+00     1.000000e+02     
             15  1.542316e-01         0.904573          3.36287     4.362372e+02     4.362372e+00     1.000000e+02     
             16  1.541513e-01         0.904102          3.36042     4.359899e+02     4.359899e+00     1.000000e+02     
             17  1.540295e-01         0.903388          3.35916     4.358367e+02     4.358367e+00     1.000000e+02     
             18  1.539675e-01         0.903024           3.5346     4.534195e+02     4.534195e+00     1.000000e+02     
             19  1.540094e-01          0.90327          3.49067     4.490402e+02     4.490402e+00     1.000000e+02     
             20  1.540285e-01         0.903382          3.44804     4.447920e+02     4.447920e+00     1.000000e+02     
             21  1.539009e-01         0.902634          3.41848     4.417657e+02     4.417657e+00     1.000000e+02     
             22  1.541708e-01         0.904216          3.40208     4.400324e+02     4.400324e+00     1.000000e+02     
             23  1.540599e-01         0.903566          3.39306     4.392339e+02     4.392339e+00     1.000000e+02     
             24  1.540357e-01         0.903424          3.38282     4.382663e+02     4.382663e+00     1.000000e+02     
             25  1.539330e-01         0.902822          3.37998     4.379315e+02     4.379315e+00     1.000000e+02     
             26  1.538559e-01          0.90237          3.37122     4.370719e+02     4.370719e+00     1.000000e+02     
             27  1.538290e-01         0.902212          3.37065     4.370473e+02     4.370473e+00     1.000000e+02     
             28  1.537444e-01         0.901716          3.36274     4.362188e+02     4.362188e+00     1.000000e+02     
             29  1.537800e-01         0.901925          3.36192     4.361687e+02     4.361687e+00     1.000000e+02     
             30  1.537184e-01         0.901563           3.3551     4.354700e+02     4.354700e+00     1.000000e+02     
             31  1.537476e-01         0.901735          3.34526     4.345068e+02     4.345068e+00     1.000000e+02     
             32  1.538763e-01         0.902489          3.33943     4.338596e+02     4.338596e+00     1.000000e+02     
             33  1.538988e-01         0.902621          3.33436     4.334216e+02     4.334216e+00     1.000000e+02     
             34  1.540240e-01         0.903356          3.33467     4.333861e+02     4.333861e+00     1.000000e+02     
             35  1.538667e-01         0.902433          3.32788     4.326854e+02     4.326854e+00     1.000000e+02     
             36  1.540437e-01         0.903471          3.32676     4.325611e+02     4.325611e+00     1.000000e+02     
             37  1.536753e-01          0.90131          3.32505     4.322657e+02     4.322657e+00     1.000000e+02     
             38  1.538164e-01         0.902138          3.32088     4.319965e+02     4.319965e+00     1.000000e+02     
             39  1.540000e-01         0.903215          3.32072     4.319529e+02     4.319529e+00     1.000000e+02     
             40  1.539161e-01         0.902723          3.31658     4.316038e+02     4.316038e+00     1.000000e+02     
             41  1.539714e-01         0.903047          3.31609     4.315728e+02     4.315728e+00     1.000000e+02     
             42  1.540727e-01         0.903641          3.31617     4.315511e+02     4.315511e+00     1.000000e+02     
             43  1.540362e-01         0.903427          3.31567     4.315428e+02     4.315428e+00     1.000000e+02     
             44  1.540864e-01         0.903722          3.41002     4.409697e+02     4.409697e+00     1.000000e+02     
             45  1.541169e-01         0.903901          3.38579     4.385588e+02     4.385588e+00     1.000000e+02     
             46  1.541671e-01         0.904195          3.36754     4.367218e+02     4.367218e+00     1.000000e+02     
             47  1.539627e-01         0.902996          3.35634     4.355016e+02     4.355016e+00     1.000000e+02     
             48  1.541383e-01         0.904026          3.34733     4.346189e+02     4.346189e+00     1.000000e+02     
             49  1.539449e-01         0.902892          3.34266     4.341404e+02     4.341404e+00     1.000000e+02     
             50  1.539992e-01          0.90321          3.33537     4.335016e+02     4.335016e+00     1.000000e+02     
             51  1.539487e-01         0.902914          3.32952     4.329195e+02     4.329195e+00     1.000000e+02     
             52  1.540619e-01         0.903578          3.32645     4.325714e+02     4.325714e+00     1.000000e+02     
             53  1.540271e-01         0.903374          3.32439     4.324162e+02     4.324162e+00     1.000000e+02     
             54  1.540334e-01         0.903411          3.32286     4.322823e+02     4.322823e+00     1.000000e+02     
             55  1.539838e-01          0.90312          3.32118     4.320856e+02     4.320856e+00     1.000000e+02     
             56  1.539563e-01         0.902959          3.31975     4.319568e+02     4.319568e+00     1.000000e+02     
             57  1.539647e-01         0.903008          3.31636     4.316303e+02     4.316303e+00     1.000000e+02     
             58  1.539729e-01         0.903056          3.31546     4.315403e+02     4.315403e+00     1.000000e+02     
             59  1.540811e-01         0.903691            3.316     4.315296e+02     4.315296e+00     1.000000e+02     
             60  1.540091e-01         0.903268          3.31288     4.312409e+02     4.312409e+00     1.000000e+02     
             61  1.541237e-01          0.90394          3.31301     4.312262e+02     4.312262e+00     1.000000e+02     
             62  1.540167e-01         0.903313          3.31078     4.310086e+02     4.310086e+00     1.000000e+02     
             63  1.540567e-01         0.903548          3.31015     4.309886e+02     4.309886e+00     1.000000e+02     
             64  1.541286e-01         0.903969          3.31011     4.309639e+02     4.309639e+00     1.000000e+02     
             65  1.540230e-01          0.90335          3.30871     4.308029e+02     4.308029e+00     1.000000e+02     
             66  1.541089e-01         0.903854          3.30841     4.307851e+02     4.307851e+00     1.000000e+02     
             67  1.540548e-01         0.903536          3.30683     4.306474e+02     4.306474e+00     1.000000e+02     
             68  1.541370e-01         0.904018          3.30695     4.306419e+02     4.306419e+00     1.000000e+02     
             69  1.540162e-01          0.90331          3.30654     4.305759e+02     4.305759e+00     1.000000e+02     
             70  1.540245e-01         0.903359          3.30568     4.305628e+02     4.305628e+00     1.000000e+02     
             71  1.539465e-01         0.902901          3.30593     4.305425e+02     4.305425e+00     1.000000e+02     
             72  1.540319e-01         0.903402          3.30508     4.304528e+02     4.304528e+00     1.000000e+02     
             73  1.540641e-01         0.903591          3.30468     4.304466e+02     4.304466e+00     1.000000e+02     
             74  1.540462e-01         0.903486          3.30454     4.304426e+02     4.304426e+00     1.000000e+02     
             75  1.540315e-01         0.903399          3.30346     4.303364e+02     4.303364e+00     1.000000e+02     
             76  1.540424e-01         0.903463          3.30326     4.303193e+02     4.303193e+00     1.000000e+02     
             77  1.540712e-01         0.903632          3.30333     4.303145e+02     4.303145e+00     1.000000e+02     
             78  1.540685e-01         0.903617          3.30313     4.303115e+02     4.303115e+00     1.000000e+02     
             79  1.540909e-01         0.903748          3.36336     4.363214e+02     4.363214e+00     1.000000e+02     
             80  1.541669e-01         0.904194          3.35154     4.351044e+02     4.351044e+00     1.000000e+02     
             81  1.541494e-01         0.904091          3.34205     4.341932e+02     4.341932e+00     1.000000e+02     
             82  1.540022e-01         0.903228          3.33555     4.334599e+02     4.334599e+00     1.000000e+02     
             83  1.543502e-01         0.905269          3.33704     4.334783e+02     4.334783e+00     1.000000e+02     
             84  1.536902e-01         0.901398          3.33721     4.332938e+02     4.332938e+00     1.000000e+02     
             85  1.538428e-01         0.902293           3.3266     4.325603e+02     4.325603e+00     1.000000e+02     
             86  1.541000e-01         0.903801          3.32724     4.325571e+02     4.325571e+00     1.000000e+02     
             87  1.539376e-01         0.902849          3.32065     4.319598e+02     4.319598e+00     1.000000e+02     
             88  1.540278e-01         0.903378          3.31881     4.318227e+02     4.318227e+00     1.000000e+02     
             89  1.540404e-01         0.903452          3.31765     4.317572e+02     4.317572e+00     1.000000e+02     
             90  1.540482e-01         0.903498          3.31696     4.316912e+02     4.316912e+00     1.000000e+02     
             91  1.540600e-01         0.903567           3.3169     4.316824e+02     4.316824e+00     1.000000e+02     
             92  1.540771e-01         0.903667          3.31601     4.315896e+02     4.315896e+00     1.000000e+02     
             93  1.540675e-01          0.90361           3.3159     4.315836e+02     4.315836e+00     1.000000e+02     
             94  1.540826e-01         0.903699          3.31565     4.315550e+02     4.315550e+00     1.000000e+02     
             95  1.540824e-01         0.903698          3.31554     4.315540e+02     4.315540e+00     1.000000e+02     
             96  1.540843e-01         0.903709          3.31552     4.315504e+02     4.315504e+00     1.000000e+02     
             97  1.540918e-01         0.903753          3.31555     4.315497e+02     4.315497e+00     1.000000e+02     
             98  1.540892e-01         0.903738          3.31551     4.315492e+02     4.315492e+00     1.000000e+02     
             99  1.541011e-01         0.903808          3.31556     4.315482e+02     4.315482e+00     1.000000e+02     
            100  1.540636e-01         0.903588          3.33453     4.334288e+02     4.334288e+00     1.000000e+02     
            101  1.540678e-01         0.903612          3.32716     4.327131e+02     4.327131e+00     1.000000e+02     
            102  1.540942e-01         0.903767          3.32316     4.322992e+02     4.322992e+00     1.000000e+02     
            103  1.539988e-01         0.903208          3.32246     4.321840e+02     4.321840e+00     1.000000e+02     
            104  1.543539e-01         0.905291           3.3179     4.315595e+02     4.315595e+00     1.000000e+02     
            105  1.536436e-01         0.901124          3.31952     4.314916e+02     4.314916e+00     1.000000e+02     
            106  1.541439e-01         0.904059          3.31561     4.312358e+02     4.312358e+00     1.000000e+02     
            107  1.539425e-01         0.902877          3.31031     4.309002e+02     4.309002e+00     1.000000e+02     
            108  1.539827e-01         0.903113          3.30881     4.308553e+02     4.308553e+00     1.000000e+02     
            109  1.539794e-01         0.903094           3.3084     4.308382e+02     4.308382e+00     1.000000e+02     
            110  1.539709e-01         0.903044          3.30835     4.308292e+02     4.308292e+00     1.000000e+02     
            111  1.539970e-01         0.903197          3.33151     4.331340e+02     4.331340e+00     1.000000e+02     
            112  1.540193e-01         0.903328          3.32695     4.326806e+02     4.326806e+00     1.000000e+02     
            113  1.540401e-01          0.90345          3.32475     4.324614e+02     4.324614e+00     1.000000e+02     
            114  1.538918e-01          0.90258          3.31923     4.318266e+02     4.318266e+00     1.000000e+02     
            115  1.539914e-01         0.903165          3.31849     4.317847e+02     4.317847e+00     1.000000e+02     
            116  1.539961e-01         0.903192          3.31774     4.317712e+02     4.317712e+00     1.000000e+02     
            117  1.540517e-01         0.903518          3.31675     4.316394e+02     4.316394e+00     1.000000e+02     
            118  1.540244e-01         0.903358          3.31638     4.316203e+02     4.316203e+00     1.000000e+02     
            119  1.540545e-01         0.903535          3.31549     4.315295e+02     4.315295e+00     1.000000e+02     
            120  1.540282e-01          0.90338          3.31504     4.314873e+02     4.314873e+00     1.000000e+02     
            121  1.540500e-01         0.903508          3.31498     4.314842e+02     4.314842e+00     1.000000e+02     
            122  1.540519e-01         0.903519          3.31484     4.314832e+02     4.314832e+00     1.000000e+02     
            123  1.540565e-01         0.903546          3.31486     4.314827e+02     4.314827e+00     1.000000e+02     
            124  1.540896e-01          0.90374           3.3179     4.317686e+02     4.317686e+00     1.000000e+02     
            125  1.540932e-01         0.903761          3.31484     4.314820e+02     4.314820e+00     1.000000e+02     
            126  1.541089e-01         0.903853          3.31438     4.314283e+02     4.314283e+00     1.000000e+02     
            127  1.539530e-01         0.902939          3.31359     4.312583e+02     4.312583e+00     1.000000e+02     
            128  1.540361e-01         0.903427          3.31296     4.312415e+02     4.312415e+00     1.000000e+02     
            129  1.540454e-01         0.903481          3.31243     4.312372e+02     4.312372e+00     1.000000e+02     
            130  1.540806e-01         0.903687          3.31224     4.312009e+02     4.312009e+00     1.000000e+02     
            131  1.540230e-01          0.90335          3.31234     4.311967e+02     4.311967e+00     1.000000e+02     
            132  1.540139e-01         0.903296          3.31187     4.311808e+02     4.311808e+00     1.000000e+02     
            133  1.540368e-01          0.90343          3.31192     4.311771e+02     4.311771e+00     1.000000e+02     
            134  1.540538e-01          0.90353          3.30445     4.304335e+02     4.304335e+00     1.000000e+02     
            135  1.540988e-01         0.903794           3.3045     4.304203e+02     4.304203e+00     1.000000e+02     
            136  1.541103e-01         0.903861          3.30424     4.304165e+02     4.304165e+00     1.000000e+02     
            137  1.540867e-01         0.903723          3.30431     4.304160e+02     4.304160e+00     1.000000e+02     
            138  1.540935e-01         0.903763          3.31858     4.318531e+02     4.318531e+00     1.000000e+02     
            139  1.542019e-01         0.904399          3.31629     4.315585e+02     4.315585e+00     1.000000e+02     
            140  1.541947e-01         0.904356          3.31369     4.313646e+02     4.313646e+00     1.000000e+02     
            141  1.539952e-01         0.903187          3.31401     4.312721e+02     4.312721e+00     1.000000e+02     
            142  1.540981e-01          0.90379          3.31326     4.312595e+02     4.312595e+00     1.000000e+02     
            143  1.539299e-01         0.902803          3.30626     4.305167e+02     4.305167e+00     1.000000e+02     
            144  1.540346e-01         0.903418          3.30444     4.303755e+02     4.303755e+00     1.000000e+02     
            145  1.538415e-01         0.902285          3.30397     4.302713e+02     4.302713e+00     1.000000e+02     
            146  1.539772e-01         0.903081           3.3024     4.301519e+02     4.301519e+00     1.000000e+02     
            147  1.537705e-01         0.901869          3.30113     4.299785e+02     4.299785e+00     1.000000e+02     
            148  1.539216e-01         0.902755          3.29952     4.298540e+02     4.298540e+00     1.000000e+02     
            149  1.538061e-01         0.902078          3.29463     4.293877e+02     4.293877e+00     1.000000e+02     
            150  1.539383e-01         0.902853          3.29407     4.293214e+02     4.293214e+00     1.000000e+02     
            151  1.537226e-01         0.901588          3.29416     4.292762e+02     4.292762e+00     1.000000e+02     
            152  1.538031e-01          0.90206          3.29263     4.292104e+02     4.292104e+00     1.000000e+02     
            153  1.539757e-01         0.903072          3.29214     4.291020e+02     4.291020e+00     1.000000e+02     
            154  1.539638e-01         0.903003          3.29106     4.290981e+02     4.290981e+00     1.000000e+02     
            155  1.539610e-01         0.902986          3.31873     4.318713e+02     4.318713e+00     1.000000e+02     
            156  1.539949e-01         0.903185          3.31814     4.317916e+02     4.317916e+00     1.000000e+02     
            157  1.540213e-01          0.90334          3.31776     4.317588e+02     4.317588e+00     1.000000e+02     
            158  1.538839e-01         0.902534          3.31453     4.313634e+02     4.313634e+00     1.000000e+02     
            159  1.539940e-01         0.903179          3.31415     4.313430e+02     4.313430e+00     1.000000e+02     
            160  1.539948e-01         0.903184           3.3134     4.313393e+02     4.313393e+00     1.000000e+02     
            161  1.540282e-01          0.90338          3.31212     4.311905e+02     4.311905e+00     1.000000e+02     
            162  1.539868e-01         0.903137          3.31216     4.311888e+02     4.311888e+00     1.000000e+02     
            163  1.539689e-01         0.903032          3.30984     4.309725e+02     4.309725e+00     1.000000e+02     
            164  1.539686e-01         0.903031          3.30971     4.309708e+02     4.309708e+00     1.000000e+02     
            165  1.539391e-01         0.902857          3.30769     4.307503e+02     4.307503e+00     1.000000e+02     
            166  1.539747e-01         0.903066          3.30769     4.307459e+02     4.307459e+00     1.000000e+02     
            167  1.539508e-01         0.902926          3.30683     4.306673e+02     4.306673e+00     1.000000e+02     
            168  1.539499e-01         0.902921          3.30663     4.306628e+02     4.306628e+00     1.000000e+02     
            169  1.538970e-01          0.90261          3.30551     4.305164e+02     4.305164e+00     1.000000e+02     
            170  1.539147e-01         0.902715          3.30526     4.305141e+02     4.305141e+00     1.000000e+02     
            171  1.538876e-01         0.902555          3.30457     4.304390e+02     4.304390e+00     1.000000e+02     
            172  1.539024e-01         0.902642          3.30444     4.304348e+02     4.304348e+00     1.000000e+02     
            173  1.539085e-01         0.902678          3.30358     4.303538e+02     4.303538e+00     1.000000e+02     
            174  1.539465e-01         0.902901          3.30369     4.303443e+02     4.303443e+00     1.000000e+02     
            175  1.539487e-01         0.902914          3.30304     4.303026e+02     4.303026e+00     1.000000e+02     
            176  1.539334e-01         0.902824          3.30285     4.302748e+02     4.302748e+00     1.000000e+02     
            177  1.539969e-01         0.903196           3.3031     4.302689e+02     4.302689e+00     1.000000e+02     
            178  1.539383e-01         0.902853          3.30191     4.301528e+02     4.301528e+00     1.000000e+02     
            179  1.540267e-01         0.903371          3.30179     4.301217e+02     4.301217e+00     1.000000e+02     
            180  1.539280e-01         0.902792          3.30025     4.299607e+02     4.299607e+00     1.000000e+02     
            181  1.539791e-01         0.903092          3.29958     4.299245e+02     4.299245e+00     1.000000e+02     
            182  1.538769e-01         0.902493          3.29905     4.298388e+02     4.298388e+00     1.000000e+02     
            183  1.539774e-01         0.903082          3.29858     4.297923e+02     4.297923e+00     1.000000e+02     
            184  1.539440e-01         0.902887          3.29806     4.297842e+02     4.297842e+00     1.000000e+02     
            185  1.540388e-01         0.903442          3.29843     4.297819e+02     4.297819e+00     1.000000e+02     
            186  1.540187e-01         0.903325          3.31649     4.316361e+02     4.316361e+00     1.000000e+02     
            187  1.541064e-01         0.903839          3.31669     4.316123e+02     4.316123e+00     1.000000e+02     
            188  1.541028e-01         0.903817          3.31598     4.315960e+02     4.315960e+00     1.000000e+02     
            189  1.539496e-01         0.902919          3.31517     4.314181e+02     4.314181e+00     1.000000e+02     
            190  1.540518e-01         0.903518          3.31471     4.314046e+02     4.314046e+00     1.000000e+02     
            191  1.539985e-01         0.903206          3.30597     4.305626e+02     4.305626e+00     1.000000e+02     
            192  1.540269e-01         0.903373           3.3047     4.304517e+02     4.304517e+00     1.000000e+02     
            193  1.538717e-01         0.902462          3.29863     4.297626e+02     4.297626e+00     1.000000e+02     
            194  1.541094e-01         0.903856           3.2975     4.295959e+02     4.295959e+00     1.000000e+02     
            195  1.540215e-01         0.903341          3.29626     4.295688e+02     4.295688e+00     1.000000e+02     
            196  1.540518e-01         0.903518          3.29582     4.295621e+02     4.295621e+00     1.000000e+02     
            197  1.540104e-01         0.903276          3.30922     4.308951e+02     4.308951e+00     1.000000e+02     
            198  1.540346e-01         0.903417          3.30898     4.308824e+02     4.308824e+00     1.000000e+02     
            199  1.540630e-01         0.903585          3.30899     4.308805e+02     4.308805e+00     1.000000e+02     
            200  1.539308e-01         0.902809          3.30665     4.305796e+02     4.305796e+00     1.000000e+02     
            201  1.540598e-01         0.903565          3.30634     4.305499e+02     4.305499e+00     1.000000e+02     
            202  1.540513e-01         0.903516          3.30553     4.305477e+02     4.305477e+00     1.000000e+02     
            203  1.540608e-01         0.903571          3.30552     4.305464e+02     4.305464e+00     1.000000e+02     
            204  1.540692e-01         0.903621          3.31522     4.315164e+02     4.315164e+00     1.000000e+02     
            205  1.540745e-01         0.903652          3.31519     4.315160e+02     4.315160e+00     1.000000e+02     
            206  1.541014e-01         0.903809          3.31533     4.315154e+02     4.315154e+00     1.000000e+02     
            207  1.539367e-01         0.902844          3.31197     4.310904e+02     4.310904e+00     1.000000e+02     
            208  1.540713e-01         0.903633          3.31149     4.310617e+02     4.310617e+00     1.000000e+02     
            209  1.539755e-01         0.903071          3.30607     4.305451e+02     4.305451e+00     1.000000e+02     
            210  1.540388e-01         0.903442          3.30494     4.304527e+02     4.304527e+00     1.000000e+02     
            211  1.538308e-01         0.902222           3.3013     4.299945e+02     4.299945e+00     1.000000e+02     
            212  1.540514e-01         0.903516          3.29999     4.298554e+02     4.298554e+00     1.000000e+02     
            213  1.539274e-01         0.902789          3.29905     4.298248e+02     4.298248e+00     1.000000e+02     
            214  1.540256e-01         0.903365          3.29862     4.297979e+02     4.297979e+00     1.000000e+02     
            215  1.539963e-01         0.903193          3.31502     4.314833e+02     4.314833e+00     1.000000e+02     
            216  1.540294e-01         0.903387          3.31503     4.314812e+02     4.314812e+00     1.000000e+02     
            217  1.540380e-01         0.903438          3.31486     4.314804e+02     4.314804e+00     1.000000e+02     
            218  1.528785e-01         0.896637           3.3201     4.312576e+02     4.312576e+00     1.000000e+02     
            219  1.547339e-01         0.907519          3.30594     4.293804e+02     4.293804e+00     1.000000e+02     
            220  1.538909e-01         0.902575          3.28884     4.283394e+02     4.283394e+00     1.000000e+02     
            221  1.539372e-01         0.902847          3.28092     4.280616e+02     4.280616e+00     1.000000e+02     
            222  1.538803e-01         0.902513           3.3586     4.358231e+02     4.358231e+00     1.000000e+02     
            223  1.538976e-01         0.902614          3.35558     4.355466e+02     4.355466e+00     1.000000e+02     
            224  1.538495e-01         0.902332          3.34866     4.348346e+02     4.348346e+00     1.000000e+02     
            225  1.537752e-01         0.901897          3.33792     4.337440e+02     4.337440e+00     1.000000e+02     
            226  1.539699e-01         0.903038          3.33577     4.334501e+02     4.334501e+00     1.000000e+02     
            227  1.537713e-01         0.901874          3.32481     4.323524e+02     4.323524e+00     1.000000e+02     
            228  1.540433e-01         0.903469          3.32469     4.322925e+02     4.322925e+00     1.000000e+02     
            229  1.537391e-01         0.901685          3.31717     4.315199e+02     4.315199e+00     1.000000e+02     
            230  1.539528e-01         0.902938          3.31579     4.314403e+02     4.314403e+00     1.000000e+02     
            231  1.537241e-01         0.901597          3.31361     4.312122e+02     4.312122e+00     1.000000e+02     
            232  1.539140e-01         0.902711          3.31281     4.311574e+02     4.311574e+00     1.000000e+02     
            233  1.537140e-01         0.901537          3.31115     4.309851e+02     4.309851e+00     1.000000e+02     
            234  1.537689e-01         0.901859          3.30973     4.309372e+02     4.309372e+00     1.000000e+02     
            235  1.537156e-01         0.901547          3.30731     4.306959e+02     4.306959e+00     1.000000e+02     
            236  1.536932e-01         0.901415          3.30558     4.305438e+02     4.305438e+00     1.000000e+02     
            237  1.537474e-01         0.901733          3.30473     4.304377e+02     4.304377e+00     1.000000e+02     
            238  1.538981e-01         0.902617          3.30516     4.304181e+02     4.304181e+00     1.000000e+02     
            239  1.538846e-01         0.902538          3.30413     4.304042e+02     4.304042e+00     1.000000e+02     
            240  1.539345e-01         0.902831          3.32248     4.322152e+02     4.322152e+00     1.000000e+02     
            241  1.539534e-01         0.902941          3.31996     4.319842e+02     4.319842e+00     1.000000e+02     
            242  1.539927e-01         0.903172           3.3195     4.319243e+02     4.319243e+00     1.000000e+02     
            243  1.538711e-01         0.902459          3.31626     4.315468e+02     4.315468e+00     1.000000e+02     
            244  1.539714e-01         0.903047          3.31595     4.315297e+02     4.315297e+00     1.000000e+02     
            245  1.539210e-01         0.902751          3.31343     4.313103e+02     4.313103e+00     1.000000e+02     
            246  1.539209e-01         0.902751          3.31244     4.312435e+02     4.312435e+00     1.000000e+02     
            247  1.538932e-01         0.902589          3.31203     4.311851e+02     4.311851e+00     1.000000e+02     
            248  1.539632e-01         0.902999          3.31042     4.309967e+02     4.309967e+00     1.000000e+02     
            249  1.539749e-01         0.903068          3.30993     4.309854e+02     4.309854e+00     1.000000e+02     
            250  1.540337e-01         0.903413          3.30974     4.309357e+02     4.309357e+00     1.000000e+02     
            251  1.540306e-01         0.903394           3.3093     4.309282e+02     4.309282e+00     1.000000e+02     
            252  1.540288e-01         0.903384          3.30927     4.309262e+02     4.309262e+00     1.000000e+02     
            253  1.540367e-01          0.90343           3.3093     4.309253e+02     4.309253e+00     1.000000e+02     
            254  1.540719e-01         0.903637           3.3059     4.305674e+02     4.305674e+00     1.000000e+02     
            255  1.540823e-01         0.903698          3.30563     4.305567e+02     4.305567e+00     1.000000e+02     
            256  1.540905e-01         0.903746          3.30558     4.305525e+02     4.305525e+00     1.000000e+02     
            257  1.540553e-01         0.903539          3.30574     4.305510e+02     4.305510e+00     1.000000e+02     
            258  1.540829e-01         0.903701          3.31859     4.318410e+02     4.318410e+00     1.000000e+02     
            259  1.540331e-01         0.903409          3.31255     4.312224e+02     4.312224e+00     1.000000e+02     
            260  1.540849e-01         0.903713          3.31011     4.309771e+02     4.309771e+00     1.000000e+02     
            261  1.539587e-01         0.902973          3.30809     4.307266e+02     4.307266e+00     1.000000e+02     
            262  1.539871e-01         0.903139          3.30722     4.307039e+02     4.307039e+00     1.000000e+02     
            263  1.541761e-01         0.904248          3.30871     4.307484e+02     4.307484e+00     1.000000e+02     
            264  1.540576e-01         0.903553          3.30763     4.306860e+02     4.306860e+00     1.000000e+02     
            265  1.540301e-01         0.903392          3.32151     4.321329e+02     4.321329e+00     1.000000e+02     
            266  1.540600e-01         0.903567          3.32053     4.320339e+02     4.320339e+00     1.000000e+02     
            267  1.542560e-01         0.904716          3.31674     4.315467e+02     4.315467e+00     1.000000e+02     
            268  1.540808e-01         0.903689          3.31505     4.313911e+02     4.313911e+00     1.000000e+02     
            269  1.540803e-01         0.903686          3.31368     4.313672e+02     4.313672e+00     1.000000e+02     
            270  1.540839e-01         0.903707          3.31363     4.313606e+02     4.313606e+00     1.000000e+02     
            271  1.541013e-01         0.903809          3.31368     4.313570e+02     4.313570e+00     1.000000e+02     
            272  1.540946e-01          0.90377           3.3136     4.313554e+02     4.313554e+00     1.000000e+02     
            273  1.541162e-01         0.903897          3.31369     4.313545e+02     4.313545e+00     1.000000e+02     
            274  1.540225e-01         0.903347          3.29757     4.296960e+02     4.296960e+00     1.000000e+02     
            275  1.540735e-01         0.903646          3.29699     4.296658e+02     4.296658e+00     1.000000e+02     
            276  1.541496e-01         0.904092          3.29697     4.296476e+02     4.296476e+00     1.000000e+02     
            277  1.541126e-01         0.903875           3.2967     4.296461e+02     4.296461e+00     1.000000e+02     
            278  1.541277e-01         0.903964          3.31959     4.319488e+02     4.319488e+00     1.000000e+02     
            279  1.541031e-01         0.903819          3.31189     4.311728e+02     4.311728e+00     1.000000e+02     
            280  1.541216e-01         0.903928          3.30944     4.309316e+02     4.309316e+00     1.000000e+02     
            281  1.540249e-01         0.903361          3.30974     4.309117e+02     4.309117e+00     1.000000e+02     
            282  1.540754e-01         0.903657          3.30939     4.309061e+02     4.309061e+00     1.000000e+02     
            283  1.540678e-01         0.903612          3.31243     4.312382e+02     4.312382e+00     1.000000e+02     
            284  1.540742e-01          0.90365          3.31233     4.312292e+02     4.312292e+00     1.000000e+02     
            285  1.541009e-01         0.903806          3.31244     4.312271e+02     4.312271e+00     1.000000e+02     
            286  1.528695e-01         0.896584          3.31402     4.306025e+02     4.306025e+00     1.000000e+02     
            287  1.547719e-01         0.907742          3.30392     4.291476e+02     4.291476e+00     1.000000e+02     
            288  1.539512e-01         0.902928          3.28782     4.282519e+02     4.282519e+00     1.000000e+02     
            289  1.539765e-01         0.903077          3.27582     4.275655e+02     4.275655e+00     1.000000e+02     
            290  1.539499e-01         0.902921          3.30632     4.306147e+02     4.306147e+00     1.000000e+02     
            291  1.540036e-01         0.903236           3.3063     4.305948e+02     4.305948e+00     1.000000e+02     
            292  1.540216e-01         0.903342          3.30599     4.305878e+02     4.305878e+00     1.000000e+02     
            293  1.539772e-01         0.903081          3.30614     4.305850e+02     4.305850e+00     1.000000e+02     
            294  1.540191e-01         0.903327          3.32399     4.323715e+02     4.323715e+00     1.000000e+02     
            295  1.540095e-01         0.903271          3.31235     4.312289e+02     4.312289e+00     1.000000e+02     
            296  1.540816e-01         0.903693          3.31061     4.310142e+02     4.310142e+00     1.000000e+02     
            297  1.538752e-01         0.902483           3.3116     4.310256e+02     4.310256e+00     1.000000e+02     
            298  1.540421e-01         0.903462          3.30899     4.307906e+02     4.307906e+00     1.000000e+02     
            299  1.540042e-01          0.90324          3.30783     4.307589e+02     4.307589e+00     1.000000e+02     
            300  1.540091e-01         0.903268           3.3072     4.307164e+02     4.307164e+00     1.000000e+02     
            301  1.540647e-01         0.903594          3.30748     4.307114e+02     4.307114e+00     1.000000e+02     
            302  1.540540e-01         0.903532          3.31467     4.314598e+02     4.314598e+00     1.000000e+02     
            303  1.540815e-01         0.903693          3.31475     4.314569e+02     4.314569e+00     1.000000e+02     
            304  1.542838e-01          0.90488          3.31463     4.313315e+02     4.313315e+00     1.000000e+02     
            305  1.541113e-01         0.903868          3.31308     4.311957e+02     4.311957e+00     1.000000e+02     
            306  1.540921e-01         0.903755          3.31196     4.311833e+02     4.311833e+00     1.000000e+02     
            307  1.540954e-01         0.903774          3.31181     4.311786e+02     4.311786e+00     1.000000e+02     
            308  1.540908e-01         0.903748          3.31179     4.311764e+02     4.311764e+00     1.000000e+02     
            309  1.541153e-01         0.903891           3.3182     4.318040e+02     4.318040e+00     1.000000e+02     
            310  1.541591e-01         0.904148          3.31475     4.314465e+02     4.314465e+00     1.000000e+02     
            311  1.541790e-01         0.904265          3.31234     4.312213e+02     4.312213e+00     1.000000e+02     
            312  1.540526e-01         0.903523          3.31166     4.310837e+02     4.310837e+00     1.000000e+02     
            313  1.541349e-01         0.904006          3.31131     4.310777e+02     4.310777e+00     1.000000e+02     
            314  1.539420e-01         0.902875          3.31056     4.309311e+02     4.309311e+00     1.000000e+02     
            315  1.540838e-01         0.903707          3.30896     4.308036e+02     4.308036e+00     1.000000e+02     
            316  1.540278e-01         0.903378          3.30809     4.307723e+02     4.307723e+00     1.000000e+02     
            317  1.540514e-01         0.903517          3.30784     4.307683e+02     4.307683e+00     1.000000e+02     
            318  1.540209e-01         0.903337          3.30159     4.301393e+02     4.301393e+00     1.000000e+02     
            319  1.540223e-01         0.903346          3.30133     4.301320e+02     4.301320e+00     1.000000e+02     
            320  1.540599e-01         0.903566          3.30141     4.301163e+02     4.301163e+00     1.000000e+02     
            321  1.540348e-01         0.903419          3.30131     4.301147e+02     4.301147e+00     1.000000e+02     
            322  1.540825e-01         0.903699          3.30144     4.301130e+02     4.301130e+00     1.000000e+02     
            323  1.539606e-01         0.902984          3.27412     4.273333e+02     4.273333e+00     1.000000e+02     
            324  1.541973e-01         0.904372          3.27333     4.271793e+02     4.271793e+00     1.000000e+02     
            325  1.541638e-01         0.904175          3.27174     4.271528e+02     4.271528e+00     1.000000e+02     
            326  1.540680e-01         0.903613          3.27197     4.271348e+02     4.271348e+00     1.000000e+02     
            327  1.541113e-01         0.903867          3.32449     4.324213e+02     4.324213e+00     1.000000e+02     
            328  1.540746e-01         0.903652          3.31205     4.311810e+02     4.311810e+00     1.000000e+02     
            329  1.541275e-01         0.903963          3.30941     4.309062e+02     4.309062e+00     1.000000e+02     
            330  1.540382e-01         0.903439          3.30935     4.308772e+02     4.308772e+00     1.000000e+02     
            331  1.540624e-01         0.903581          3.30693     4.306777e+02     4.306777e+00     1.000000e+02     
            332  1.540924e-01         0.903757          3.30691     4.306717e+02     4.306717e+00     1.000000e+02     
            333  1.540349e-01          0.90342          3.30625     4.305874e+02     4.305874e+00     1.000000e+02     
            334  1.540327e-01         0.903407          3.30577     4.305755e+02     4.305755e+00     1.000000e+02     
            335  1.539894e-01         0.903153          3.30409     4.303808e+02     4.303808e+00     1.000000e+02     
            336  1.540027e-01         0.903231          3.30378     4.303692e+02     4.303692e+00     1.000000e+02     
            337  1.539658e-01         0.903015          3.30302     4.302778e+02     4.302778e+00     1.000000e+02     
            338  1.539862e-01         0.903134          3.30273     4.302600e+02     4.302600e+00     1.000000e+02     
            339  1.540942e-01         0.903768           3.3032     4.302501e+02     4.302501e+00     1.000000e+02     
            340  1.540713e-01         0.903633          3.30256     4.302408e+02     4.302408e+00     1.000000e+02     
            341  1.540874e-01         0.903727          3.31508     4.314976e+02     4.314976e+00     1.000000e+02     
            342  1.541109e-01         0.903865          3.31493     4.314776e+02     4.314776e+00     1.000000e+02     
            343  1.541166e-01         0.903899          3.31477     4.314729e+02     4.314729e+00     1.000000e+02     
            344  1.539914e-01         0.903164          3.31545     4.314639e+02     4.314639e+00     1.000000e+02     
            345  1.540627e-01         0.903582          3.31501     4.314542e+02     4.314542e+00     1.000000e+02     
            346  1.540997e-01         0.903799          3.31427     4.314031e+02     4.314031e+00     1.000000e+02     
            347  1.539477e-01         0.902908          3.31454     4.313554e+02     4.313554e+00     1.000000e+02     
            348  1.539379e-01          0.90285          3.31248     4.312415e+02     4.312415e+00     1.000000e+02     
            349  1.540425e-01         0.903464          3.31273     4.312046e+02     4.312046e+00     1.000000e+02     
            350  1.540322e-01         0.903404          3.31044     4.310370e+02     4.310370e+00     1.000000e+02     
            351  1.540822e-01         0.903697          3.31052     4.310192e+02     4.310192e+00     1.000000e+02     
            352  1.540583e-01         0.903557          3.31028     4.310125e+02     4.310125e+00     1.000000e+02     
            353  1.540838e-01         0.903706          3.31026     4.310093e+02     4.310093e+00     1.000000e+02     
            354  1.540889e-01         0.903736          3.31717     4.317136e+02     4.317136e+00     1.000000e+02     
            355  1.541235e-01         0.903939          3.31675     4.316524e+02     4.316524e+00     1.000000e+02     
            356  1.541325e-01         0.903992          3.31652     4.316466e+02     4.316466e+00     1.000000e+02     
            357  1.529251e-01          0.89691          3.32004     4.312210e+02     4.312210e+00     1.000000e+02     
            358  1.534731e-01         0.900124          3.30675     4.303163e+02     4.303163e+00     1.000000e+02     
            359  1.535865e-01          0.90079          3.30096     4.300217e+02     4.300217e+00     1.000000e+02     
            360  1.539336e-01         0.902825          3.30142     4.299164e+02     4.299164e+00     1.000000e+02     
            361  1.538854e-01         0.902543          3.29889     4.298575e+02     4.298575e+00     1.000000e+02     
            362  1.539620e-01         0.902992          3.29889     4.298391e+02     4.298391e+00     1.000000e+02     
            363  1.539703e-01          0.90304          3.31751     4.317455e+02     4.317455e+00     1.000000e+02     
            364  1.542483e-01         0.904671          3.31879     4.316982e+02     4.316982e+00     1.000000e+02     
            365  1.542257e-01         0.904539          3.31502     4.314873e+02     4.314873e+00     1.000000e+02     
            366  1.540704e-01         0.903628          3.31527     4.314264e+02     4.314264e+00     1.000000e+02     
            367  1.540500e-01         0.903508          3.31347     4.313334e+02     4.313334e+00     1.000000e+02     
            368  1.540650e-01         0.903596          3.31254     4.312444e+02     4.312444e+00     1.000000e+02     
            369  1.539812e-01         0.903105          3.31267     4.312126e+02     4.312126e+00     1.000000e+02     
            370  1.539601e-01         0.902981          3.31162     4.311482e+02     4.311482e+00     1.000000e+02     
            371  1.540526e-01         0.903523          3.31193     4.311327e+02     4.311327e+00     1.000000e+02     
            372  1.540003e-01         0.903217          3.30046     4.300117e+02     4.300117e+00     1.000000e+02     
            373  1.540830e-01         0.903702          3.30048     4.299941e+02     4.299941e+00     1.000000e+02     
            374  1.541082e-01         0.903849          3.30007     4.299909e+02     4.299909e+00     1.000000e+02     
            375  1.540920e-01         0.903754          3.30001     4.299906e+02     4.299906e+00     1.000000e+02     
            376  1.540998e-01           0.9038          3.32084     4.320786e+02     4.320786e+00     1.000000e+02     
            377  1.541107e-01         0.903864          3.31907     4.318998e+02     4.318998e+00     1.000000e+02     
            378  1.541137e-01         0.903882          3.31797     4.317953e+02     4.317953e+00     1.000000e+02     
            379  1.539778e-01         0.903084          3.31816     4.317278e+02     4.317278e+00     1.000000e+02     
            380  1.540502e-01         0.903509          3.31759     4.317117e+02     4.317117e+00     1.000000e+02     
            381  1.540820e-01         0.903696          3.31533     4.315121e+02     4.315121e+00     1.000000e+02     
            382  1.540285e-01         0.903382          3.31465     4.314298e+02     4.314298e+00     1.000000e+02     
            383  1.540821e-01         0.903696          3.31407     4.313725e+02     4.313725e+00     1.000000e+02     
            384  1.540657e-01           0.9036          3.31374     4.313637e+02     4.313637e+00     1.000000e+02     
            385  1.540546e-01         0.903535          3.31156     4.311489e+02     4.311489e+00     1.000000e+02     
            386  1.541248e-01         0.903947          3.31181     4.311351e+02     4.311351e+00     1.000000e+02     
            387  1.540300e-01         0.903391          3.31105     4.310432e+02     4.310432e+00     1.000000e+02     
            388  1.540958e-01         0.903777          3.31069     4.310260e+02     4.310260e+00     1.000000e+02     
            389  1.540162e-01          0.90331           3.3089     4.308381e+02     4.308381e+00     1.000000e+02     
            390  1.540957e-01         0.903776          3.30865     4.308137e+02     4.308137e+00     1.000000e+02     
            391  1.540367e-01          0.90343          3.30735     4.306963e+02     4.306963e+00     1.000000e+02     
            392  1.541212e-01         0.903926          3.30723     4.306685e+02     4.306685e+00     1.000000e+02     
            393  1.540385e-01         0.903441          3.30611     4.305572e+02     4.305572e+00     1.000000e+02     
            394  1.541113e-01         0.903868          3.30584     4.305370e+02     4.305370e+00     1.000000e+02     
            395  1.540904e-01         0.903745          3.30547     4.305332e+02     4.305332e+00     1.000000e+02     
            396  1.541016e-01          0.90381          3.30539     4.305315e+02     4.305315e+00     1.000000e+02     
            397  1.541165e-01         0.903898          3.30037     4.300269e+02     4.300269e+00     1.000000e+02     
            398  1.541317e-01         0.903987          3.30024     4.300136e+02     4.300136e+00     1.000000e+02     
            399  1.541560e-01          0.90413          3.30025     4.300094e+02     4.300094e+00     1.000000e+02     
            400  1.541353e-01         0.904009          3.30022     4.300089e+02     4.300089e+00     1.000000e+02     
            401  1.541530e-01         0.904112          3.31975     4.319633e+02     4.319633e+00     1.000000e+02     
            402  1.540723e-01         0.903639          3.31018     4.309657e+02     4.309657e+00     1.000000e+02     
            403  1.541588e-01         0.904146          3.30747     4.306908e+02     4.306908e+00     1.000000e+02     
            404  1.540531e-01         0.903526           3.3074     4.306712e+02     4.306712e+00     1.000000e+02     
            405  1.540389e-01         0.903443          3.30135     4.301254e+02     4.301254e+00     1.000000e+02     
            406  1.539437e-01         0.902885          3.29771     4.297093e+02     4.297093e+00     1.000000e+02     
            407  1.536841e-01         0.901362          3.29262     4.290934e+02     4.290934e+00     1.000000e+02     
            408  1.540691e-01          0.90362          3.28691     4.284404e+02     4.284404e+00     1.000000e+02     
            409  1.538582e-01         0.902383          3.28434     4.282972e+02     4.282972e+00     1.000000e+02     
            410  1.539869e-01         0.903138          3.28319     4.282350e+02     4.282350e+00     1.000000e+02     
            411  1.539633e-01         0.902999          3.31588     4.315727e+02     4.315727e+00     1.000000e+02     
            412  1.540263e-01         0.903369          3.31592     4.315508e+02     4.315508e+00     1.000000e+02     
            413  1.540438e-01         0.903472           3.3156     4.315483e+02     4.315483e+00     1.000000e+02     
            414  1.539339e-01         0.902827           3.3136     4.312890e+02     4.312890e+00     1.000000e+02     
            415  1.540059e-01         0.903249          3.31324     4.312772e+02     4.312772e+00     1.000000e+02     
            416  1.540701e-01         0.903626          3.31221     4.311793e+02     4.311793e+00     1.000000e+02     
            417  1.539706e-01         0.903042          3.31021     4.309567e+02     4.309567e+00     1.000000e+02     
            418  1.539821e-01          0.90311          3.30926     4.309183e+02     4.309183e+00     1.000000e+02     
            419  1.540433e-01         0.903469          3.30937     4.308977e+02     4.308977e+00     1.000000e+02     
            420  1.540614e-01         0.903575          3.30902     4.308898e+02     4.308898e+00     1.000000e+02     
            421  1.540694e-01         0.903622          3.30892     4.308871e+02     4.308871e+00     1.000000e+02     
            422  1.540845e-01         0.903711          3.30895     4.308850e+02     4.308850e+00     1.000000e+02     
            423  1.540884e-01         0.903733           3.3146     4.314578e+02     4.314578e+00     1.000000e+02     
            424  1.540960e-01         0.903778          3.31462     4.314573e+02     4.314573e+00     1.000000e+02     
            425  1.541262e-01         0.903955          3.31476     4.314567e+02     4.314567e+00     1.000000e+02     
            426  1.539602e-01         0.902981          3.31297     4.311890e+02     4.311890e+00     1.000000e+02     
            427  1.540815e-01         0.903693          3.31245     4.311666e+02     4.311666e+00     1.000000e+02     
            428  1.540773e-01         0.903668          3.30875     4.308726e+02     4.308726e+00     1.000000e+02     
            429  1.540195e-01         0.903329          3.30622     4.305841e+02     4.305841e+00     1.000000e+02     
            430  1.540624e-01         0.903581          3.30589     4.305616e+02     4.305616e+00     1.000000e+02     
            431  1.540165e-01         0.903311          3.30506     4.304762e+02     4.304762e+00     1.000000e+02     
            432  1.540043e-01          0.90324          3.30467     4.304595e+02     4.304595e+00     1.000000e+02     
            433  1.540007e-01         0.903219          3.30446     4.304439e+02     4.304439e+00     1.000000e+02     
            434  1.540409e-01         0.903455          3.30465     4.304393e+02     4.304393e+00     1.000000e+02     
            435  1.540393e-01         0.903445          3.30357     4.303560e+02     4.303560e+00     1.000000e+02     
            436  1.540993e-01         0.903797          3.30377     4.303380e+02     4.303380e+00     1.000000e+02     
            437  1.541146e-01         0.903887          3.30345     4.303356e+02     4.303356e+00     1.000000e+02     
            438  1.541023e-01         0.903815          3.30343     4.303355e+02     4.303355e+00     1.000000e+02     
            439  1.541074e-01         0.903845          3.31791     4.317882e+02     4.317882e+00     1.000000e+02     
            440  1.542352e-01         0.904594           3.3134     4.312568e+02     4.312568e+00     1.000000e+02     
            441  1.541994e-01         0.904384          3.30833     4.308100e+02     4.308100e+00     1.000000e+02     
            442  1.540212e-01         0.903339          3.30864     4.307484e+02     4.307484e+00     1.000000e+02     
            443  1.541103e-01         0.903861          3.30794     4.307361e+02     4.307361e+00     1.000000e+02     
            444  1.539486e-01         0.902914          3.30146     4.300409e+02     4.300409e+00     1.000000e+02     
            445  1.540131e-01         0.903291          3.29877     4.298351e+02     4.298351e+00     1.000000e+02     
            446  1.539137e-01         0.902709          3.29664     4.295992e+02     4.295992e+00     1.000000e+02     
            447  1.540170e-01         0.903315          3.29562     4.294948e+02     4.294948e+00     1.000000e+02     
            448  1.539505e-01         0.902925          3.29501     4.294582e+02     4.294582e+00     1.000000e+02     
            449  1.539972e-01         0.903198          3.29471     4.294409e+02     4.294409e+00     1.000000e+02     
            450  1.540081e-01         0.903262          3.30875     4.308675e+02     4.308675e+00     1.000000e+02     
            451  1.540371e-01         0.903432          3.30882     4.308634e+02     4.308634e+00     1.000000e+02     
            452  1.540605e-01          0.90357          3.30877     4.308614e+02     4.308614e+00     1.000000e+02     
            453  1.540494e-01         0.903505          3.30868     4.308612e+02     4.308612e+00     1.000000e+02     
            454  1.540751e-01         0.903655           3.3201     4.319929e+02     4.319929e+00     1.000000e+02     
            455  1.541159e-01         0.903895          3.31661     4.316347e+02     4.316347e+00     1.000000e+02     
            456  1.541396e-01         0.904033          3.31463     4.314477e+02     4.314477e+00     1.000000e+02     
            457  1.540108e-01         0.903278          3.31489     4.314057e+02     4.314057e+00     1.000000e+02     
            458  1.540440e-01         0.903473          3.31418     4.313960e+02     4.313960e+00     1.000000e+02     
            459  1.540728e-01         0.903642          3.31703     4.316845e+02     4.316845e+00     1.000000e+02     
            460  1.540752e-01         0.903656          3.31572     4.315702e+02     4.315702e+00     1.000000e+02     
            461  1.540985e-01         0.903792          3.31583     4.315681e+02     4.315681e+00     1.000000e+02     
            462  1.539676e-01         0.903025           3.3147     4.313851e+02     4.313851e+00     1.000000e+02     
            463  1.540763e-01         0.903662          3.31436     4.313652e+02     4.313652e+00     1.000000e+02     
            464  1.539892e-01         0.903152          3.30769     4.307122e+02     4.307122e+00     1.000000e+02     
            465  1.540425e-01         0.903464          3.30629     4.305940e+02     4.305940e+00     1.000000e+02     
            466  1.540062e-01         0.903251          3.30582     4.305580e+02     4.305580e+00     1.000000e+02     
            467  1.540455e-01         0.903482          3.30578     4.305524e+02     4.305524e+00     1.000000e+02     
            468  1.540486e-01           0.9035          3.31393     4.313911e+02     4.313911e+00     1.000000e+02     
            469  1.540848e-01         0.903712          3.31412     4.313886e+02     4.313886e+00     1.000000e+02     
            470  1.540965e-01         0.903781          3.31395     4.313877e+02     4.313877e+00     1.000000e+02     
            471  1.539770e-01          0.90308          3.31347     4.312692e+02     4.312692e+00     1.000000e+02     
            472  1.540690e-01         0.903619          3.31315     4.312552e+02     4.312552e+00     1.000000e+02     
            473  1.540877e-01         0.903729          3.30767     4.307544e+02     4.307544e+00     1.000000e+02     
            474  1.539655e-01         0.903013          3.30813     4.307337e+02     4.307337e+00     1.000000e+02     
            475  1.539552e-01         0.902952           3.3067     4.306629e+02     4.306629e+00     1.000000e+02     
            476  1.540463e-01         0.903487          3.30699     4.306400e+02     4.306400e+00     1.000000e+02     
            477  1.540544e-01         0.903534          3.31838     4.318327e+02     4.318327e+00     1.000000e+02     
            478  1.540749e-01         0.903654          3.31694     4.316810e+02     4.316810e+00     1.000000e+02     
            479  1.541043e-01         0.903827          3.31698     4.316791e+02     4.316791e+00     1.000000e+02     
            480  1.539758e-01         0.903073          3.31499     4.314153e+02     4.314153e+00     1.000000e+02     
            481  1.540612e-01         0.903574          3.31458     4.314027e+02     4.314027e+00     1.000000e+02     
            482  1.540682e-01         0.903615          3.31404     4.313994e+02     4.313994e+00     1.000000e+02     
            483  1.541274e-01         0.903962           3.3141     4.313719e+02     4.313719e+00     1.000000e+02     
            484  1.541011e-01         0.903808           3.3137     4.313526e+02     4.313526e+00     1.000000e+02     
            485  1.540696e-01         0.903623          3.31364     4.313435e+02     4.313435e+00     1.000000e+02     
            486  1.540735e-01         0.903646          3.31242     4.312395e+02     4.312395e+00     1.000000e+02     
            487  1.540535e-01         0.903529          3.31242     4.312295e+02     4.312295e+00     1.000000e+02     
            488  1.540822e-01         0.903697          3.31245     4.312264e+02     4.312264e+00     1.000000e+02     
            489  1.540862e-01          0.90372          3.31228     4.312256e+02     4.312256e+00     1.000000e+02     
            490  1.541019e-01         0.903812          3.31771     4.317612e+02     4.317612e+00     1.000000e+02     
            491  1.541950e-01         0.904359          3.30824     4.307636e+02     4.307636e+00     1.000000e+02     
            492  1.541935e-01          0.90435          3.30607     4.306059e+02     4.306059e+00     1.000000e+02     
            493  1.540901e-01         0.903743          3.30643     4.305760e+02     4.305760e+00     1.000000e+02     
            494  1.541281e-01         0.903966          3.30588     4.305634e+02     4.305634e+00     1.000000e+02     
            495  1.541073e-01         0.903844          3.31233     4.312198e+02     4.312198e+00     1.000000e+02     
            496  1.541301e-01         0.903978          3.31232     4.312173e+02     4.312173e+00     1.000000e+02     
            497  1.541391e-01         0.904031          3.31222     4.312166e+02     4.312166e+00     1.000000e+02     
            498  1.528351e-01         0.896382          3.31462     4.306157e+02     4.306157e+00     1.000000e+02     
            499  1.548507e-01         0.908204          3.31397     4.300786e+02     4.300786e+00     1.000000e+02     
            500  1.538863e-01         0.902548          3.29447     4.288242e+02     4.288242e+00     1.000000e+02     
</COLDATA>
</TOPOOPTDATA>
</SOLUTION>
