 ----------------------------------------------------------------------
 ----------          Welcome to Topology Optimizer          -----------
 ----------------------------------------------------------------------
                                                                       
       Version 2020 R1 (Build: 154) from 20191203                       
                                                                       
       Copyright 2020 ANSYS Inc. All Rights Reserved               
                                                                       
 ----------------------------------------------------------------------
 
       Execution time: Fri Oct  2 09:02:13 2020

 ----------------------------------------------------------------------
 
   Parameter setting:
      solver                   = Scpip
      ansys version            = 2020 R1
      design elements          = OptimizationRegionElements.dat
      feedersystem list:
       - Static system 'Static42' with id 42: 1 load case(s) at t = 1
      penalty parameter        = 3
      initial response scaling = yes
      minimum member size      = 0
      maximum member size      = 0
      minimum density          = 0.001
      restart information      = final
      mapdl ncnv               = 1e+12
      maximum iteration        = 500
      acc                      = 0.001
      units                    = MPA
      output frequency         = 1
      max intermediate files   = 500
      objective 1              = total mass [1]
      constraint 1             = global stress for load step number 1 of feeder system 'Static42' with upper bound 100
      method                   = SCP
      acc scp                  = 1e-06
      version scp              = 402
      cut off in scp           = 1
      linear inequalities remain in active set in scp = selected always
      initial penalty scp      = 1
      asymptote strategy       = program controlled

 ----------------------------------------------------------------------
   Start generating constant data...
   ...done
   Start generating tree...
   ...finished.
   Start generating element neighborhood...
    10 Percent done
    20 Percent done
    30 Percent done
    40 Percent done
    50 Percent done
    60 Percent done
    70 Percent done
    80 Percent done
    90 Percent done
   100 Percent done
   ...finished.
   Starting Ansys...
   Asymptote strategy applied: adaptive
 
  INITIAL SUMMARY
  ---------------
  Objective(s):
    [  1] Name: Objective
          Value : 1.70502e-01
 
  Constraint(s):
    [  1] Name: Global Von-Mises Stress Constraint
                             Value: 5.61551e+02 <= UB: 1.00000e+02  Deviation: 461.551 % NOTE: This is an approximation to the actual value: 518.857. The bound is not satisfied.
 
  Iter :  number of iterations
  #LS  :  number of line search iterations
  #ME  :  number of model evaluations

                                         max relative
                                         deviation of
                         objective       constraints     convergence
   Iter  #LS     #ME     measurement     in %            criterion
   ------------------------------------------------------------------
      1    1       1     1.00000e+00     4.61551e+02             ---
      2    2       3     9.75657e-01     4.35342e+02     4.37776e+00
      3    1       4     9.31200e-01     4.11545e+02     4.16102e+00
      4    1       5     9.17864e-01     3.89147e+02     3.90579e+00
      5    2       7     9.13496e-01     3.66455e+02     3.66931e+00
      6    1       8     9.01894e-01     3.65167e+02     3.66437e+00
      7    1       9     9.12155e-01     3.52008e+02     3.53146e+00
      8    1      10     9.01282e-01     3.49313e+02     3.50505e+00
      9    1      11     9.05757e-01     3.48312e+02     3.48808e+00
     10    2      13     9.02954e-01     3.41612e+02     3.41921e+00
     11    1      14     9.05966e-01     3.39128e+02     3.39462e+00
     12    1      15     9.03675e-01     3.37462e+02     3.37715e+00
     13    2      17     9.04160e-01     3.36798e+02     3.36852e+00
     14    1      18     9.05027e-01     3.36419e+02     3.36515e+00
     15    1      19     9.04573e-01     3.36237e+02     3.36287e+00
     16    1      20     9.04102e-01     3.35990e+02     3.36042e+00
     17    1      21     9.03388e-01     3.35837e+02     3.35916e+00
   Restart performed 
     18    1      22     9.03024e-01     3.53419e+02     3.53460e+00
     19    2      24     9.03270e-01     3.49040e+02     3.49067e+00
     20    2      26     9.03382e-01     3.44792e+02     3.44804e+00
     21    2      28     9.02634e-01     3.41766e+02     3.41848e+00
     22    2      30     9.04216e-01     3.40032e+02     3.40208e+00
     23    1      31     9.03566e-01     3.39234e+02     3.39306e+00
     24    1      32     9.03424e-01     3.38266e+02     3.38282e+00
     25    1      33     9.02822e-01     3.37932e+02     3.37998e+00
     26    1      34     9.02370e-01     3.37072e+02     3.37122e+00
     27    1      35     9.02212e-01     3.37047e+02     3.37065e+00
     28    1      36     9.01716e-01     3.36219e+02     3.36274e+00
     29    1      37     9.01925e-01     3.36169e+02     3.36192e+00
     30    1      38     9.01563e-01     3.35470e+02     3.35510e+00
     31    2      40     9.01735e-01     3.34507e+02     3.34526e+00
     32    1      41     9.02489e-01     3.33860e+02     3.33943e+00
     33    1      42     9.02621e-01     3.33422e+02     3.33436e+00
     34    1      43     9.03356e-01     3.33386e+02     3.33467e+00
     35    1      44     9.02433e-01     3.32685e+02     3.32788e+00
     36    1      45     9.03471e-01     3.32561e+02     3.32676e+00
     37    1      46     9.01310e-01     3.32266e+02     3.32505e+00
     38    2      48     9.02138e-01     3.31997e+02     3.32088e+00
     39    1      49     9.03215e-01     3.31953e+02     3.32072e+00
     40    1      50     9.02723e-01     3.31604e+02     3.31658e+00
     41    2      52     9.03047e-01     3.31573e+02     3.31609e+00
     42    1      53     9.03641e-01     3.31551e+02     3.31617e+00
     43    2      55     9.03427e-01     3.31543e+02     3.31567e+00
   Restart performed 
     44    1      56     9.03722e-01     3.40970e+02     3.41002e+00
     45    2      58     9.03901e-01     3.38559e+02     3.38579e+00
     46    2      60     9.04195e-01     3.36722e+02     3.36754e+00
     47    2      62     9.02996e-01     3.35502e+02     3.35634e+00
     48    2      64     9.04026e-01     3.34619e+02     3.34733e+00
     49    1      65     9.02892e-01     3.34140e+02     3.34266e+00
     50    1      66     9.03210e-01     3.33502e+02     3.33537e+00
     51    2      68     9.02914e-01     3.32919e+02     3.32952e+00
     52    1      69     9.03578e-01     3.32571e+02     3.32645e+00
     53    1      70     9.03374e-01     3.32416e+02     3.32439e+00
     54    1      71     9.03411e-01     3.32282e+02     3.32286e+00
     55    1      72     9.03120e-01     3.32086e+02     3.32118e+00
     56    1      73     9.02959e-01     3.31957e+02     3.31975e+00
     57    1      74     9.03008e-01     3.31630e+02     3.31636e+00
     58    2      76     9.03056e-01     3.31540e+02     3.31546e+00
     59    1      77     9.03691e-01     3.31530e+02     3.31600e+00
     60    1      78     9.03268e-01     3.31241e+02     3.31288e+00
     61    1      79     9.03940e-01     3.31226e+02     3.31301e+00
     62    1      80     9.03313e-01     3.31009e+02     3.31078e+00
     63    2      82     9.03548e-01     3.30989e+02     3.31015e+00
     64    1      83     9.03969e-01     3.30964e+02     3.31011e+00
     65    1      84     9.03350e-01     3.30803e+02     3.30871e+00
     66    1      85     9.03854e-01     3.30785e+02     3.30841e+00
     67    1      86     9.03536e-01     3.30647e+02     3.30683e+00
     68    1      87     9.04018e-01     3.30642e+02     3.30695e+00
     69    1      88     9.03310e-01     3.30576e+02     3.30654e+00
     70    1      89     9.03359e-01     3.30563e+02     3.30568e+00
     71    2      91     9.02901e-01     3.30542e+02     3.30593e+00
     72    1      92     9.03402e-01     3.30453e+02     3.30508e+00
     73    1      93     9.03591e-01     3.30447e+02     3.30468e+00
     74    2      95     9.03486e-01     3.30443e+02     3.30454e+00
     75    1      96     9.03399e-01     3.30336e+02     3.30346e+00
     76    2      98     9.03463e-01     3.30319e+02     3.30326e+00
     77    2     100     9.03632e-01     3.30315e+02     3.30333e+00
     78    2     102     9.03617e-01     3.30312e+02     3.30313e+00
   Restart performed 
     79    2     104     9.03748e-01     3.36321e+02     3.36336e+00
     80    2     106     9.04194e-01     3.35104e+02     3.35154e+00
     81    2     108     9.04091e-01     3.34193e+02     3.34205e+00
     82    2     110     9.03228e-01     3.33460e+02     3.33555e+00
     83    1     111     9.05269e-01     3.33478e+02     3.33704e+00
     84    1     112     9.01398e-01     3.33294e+02     3.33721e+00
     85    2     114     9.02293e-01     3.32560e+02     3.32660e+00
     86    1     115     9.03801e-01     3.32557e+02     3.32724e+00
     87    1     116     9.02849e-01     3.31960e+02     3.32065e+00
     88    2     118     9.03378e-01     3.31823e+02     3.31881e+00
     89    1     119     9.03452e-01     3.31757e+02     3.31765e+00
     90    2     121     9.03498e-01     3.31691e+02     3.31696e+00
     91    2     123     9.03567e-01     3.31682e+02     3.31690e+00
     92    1     124     9.03667e-01     3.31590e+02     3.31601e+00
     93    2     126     9.03610e-01     3.31584e+02     3.31590e+00
     94    2     128     9.03699e-01     3.31555e+02     3.31565e+00
     95    2     130     9.03698e-01     3.31554e+02     3.31554e+00
     96    2     132     9.03709e-01     3.31550e+02     3.31552e+00
     97    2     134     9.03753e-01     3.31550e+02     3.31555e+00
     98    2     136     9.03738e-01     3.31549e+02     3.31551e+00
     99    2     138     9.03808e-01     3.31548e+02     3.31556e+00
   Restart performed 
    100    1     139     9.03588e-01     3.33429e+02     3.33453e+00
    101    3     142     9.03612e-01     3.32713e+02     3.32716e+00
    102    3     145     9.03767e-01     3.32299e+02     3.32316e+00
    103    2     147     9.03208e-01     3.32184e+02     3.32246e+00
    104    1     148     9.05291e-01     3.31559e+02     3.31790e+00
    105    1     149     9.01124e-01     3.31492e+02     3.31952e+00
    106    1     150     9.04059e-01     3.31236e+02     3.31561e+00
    107    2     152     9.02877e-01     3.30900e+02     3.31031e+00
    108    2     154     9.03113e-01     3.30855e+02     3.30881e+00
    109    1     155     9.03094e-01     3.30838e+02     3.30840e+00
    110    2     157     9.03044e-01     3.30829e+02     3.30835e+00
   Restart performed 
    111    2     159     9.03197e-01     3.33134e+02     3.33151e+00
    112    3     162     9.03328e-01     3.32681e+02     3.32695e+00
    113    3     165     9.03450e-01     3.32461e+02     3.32475e+00
    114    2     167     9.02580e-01     3.31827e+02     3.31923e+00
    115    2     169     9.03165e-01     3.31785e+02     3.31849e+00
    116    2     171     9.03192e-01     3.31771e+02     3.31774e+00
    117    1     172     9.03518e-01     3.31639e+02     3.31675e+00
    118    2     174     9.03358e-01     3.31620e+02     3.31638e+00
    119    1     175     9.03535e-01     3.31530e+02     3.31549e+00
    120    2     177     9.03380e-01     3.31487e+02     3.31504e+00
    121    2     179     9.03508e-01     3.31484e+02     3.31498e+00
    122    2     181     9.03519e-01     3.31483e+02     3.31484e+00
    123    2     183     9.03546e-01     3.31483e+02     3.31486e+00
   Restart performed 
    124    1     184     9.03740e-01     3.31769e+02     3.31790e+00
    125    3     187     9.03761e-01     3.31482e+02     3.31484e+00
    126    3     190     9.03853e-01     3.31428e+02     3.31438e+00
    127    2     192     9.02939e-01     3.31258e+02     3.31359e+00
    128    2     194     9.03427e-01     3.31242e+02     3.31296e+00
    129    2     196     9.03481e-01     3.31237e+02     3.31243e+00
    130    1     197     9.03687e-01     3.31201e+02     3.31224e+00
    131    1     198     9.03350e-01     3.31197e+02     3.31234e+00
    132    2     200     9.03296e-01     3.31181e+02     3.31187e+00
    133    2     202     9.03430e-01     3.31177e+02     3.31192e+00
   Restart performed 
    134    1     203     9.03530e-01     3.30434e+02     3.30445e+00
    135    3     206     9.03794e-01     3.30420e+02     3.30450e+00
    136    3     209     9.03861e-01     3.30416e+02     3.30424e+00
    137    3     212     9.03723e-01     3.30416e+02     3.30431e+00
   Restart performed 
    138    3     215     9.03763e-01     3.31853e+02     3.31858e+00
    139    2     217     9.04399e-01     3.31559e+02     3.31629e+00
    140    3     220     9.04356e-01     3.31365e+02     3.31369e+00
    141    2     222     9.03187e-01     3.31272e+02     3.31401e+00
    142    2     224     9.03790e-01     3.31259e+02     3.31326e+00
    143    1     225     9.02803e-01     3.30517e+02     3.30626e+00
    144    1     226     9.03418e-01     3.30376e+02     3.30444e+00
    145    1     227     9.02285e-01     3.30271e+02     3.30397e+00
    146    1     228     9.03081e-01     3.30152e+02     3.30240e+00
    147    1     229     9.01869e-01     3.29979e+02     3.30113e+00
    148    1     230     9.02755e-01     3.29854e+02     3.29952e+00
    149    1     231     9.02078e-01     3.29388e+02     3.29463e+00
    150    1     232     9.02853e-01     3.29321e+02     3.29407e+00
    151    1     233     9.01588e-01     3.29276e+02     3.29416e+00
    152    2     235     9.02060e-01     3.29210e+02     3.29263e+00
    153    1     236     9.03072e-01     3.29102e+02     3.29214e+00
    154    2     238     9.03003e-01     3.29098e+02     3.29106e+00
   Restart performed 
    155    1     239     9.02986e-01     3.31871e+02     3.31873e+00
    156    3     242     9.03185e-01     3.31792e+02     3.31814e+00
    157    3     245     9.03340e-01     3.31759e+02     3.31776e+00
    158    2     247     9.02534e-01     3.31363e+02     3.31453e+00
    159    2     249     9.03179e-01     3.31343e+02     3.31415e+00
    160    2     251     9.03184e-01     3.31339e+02     3.31340e+00
    161    1     252     9.03380e-01     3.31190e+02     3.31212e+00
    162    1     253     9.03137e-01     3.31189e+02     3.31216e+00
    163    1     254     9.03032e-01     3.30973e+02     3.30984e+00
    164    1     255     9.03031e-01     3.30971e+02     3.30971e+00
    165    1     256     9.02857e-01     3.30750e+02     3.30769e+00
    166    1     257     9.03066e-01     3.30746e+02     3.30769e+00
    167    1     258     9.02926e-01     3.30667e+02     3.30683e+00
    168    1     259     9.02921e-01     3.30663e+02     3.30663e+00
    169    1     260     9.02610e-01     3.30516e+02     3.30551e+00
    170    1     261     9.02715e-01     3.30514e+02     3.30526e+00
    171    1     262     9.02555e-01     3.30439e+02     3.30457e+00
    172    1     263     9.02642e-01     3.30435e+02     3.30444e+00
    173    1     264     9.02678e-01     3.30354e+02     3.30358e+00
    174    1     265     9.02901e-01     3.30344e+02     3.30369e+00
    175    1     266     9.02914e-01     3.30303e+02     3.30304e+00
    176    2     268     9.02824e-01     3.30275e+02     3.30285e+00
    177    1     269     9.03196e-01     3.30269e+02     3.30310e+00
    178    1     270     9.02853e-01     3.30153e+02     3.30191e+00
    179    1     271     9.03371e-01     3.30122e+02     3.30179e+00
    180    1     272     9.02792e-01     3.29961e+02     3.30025e+00
    181    1     273     9.03092e-01     3.29925e+02     3.29958e+00
    182    1     274     9.02493e-01     3.29839e+02     3.29905e+00
    183    1     275     9.03082e-01     3.29792e+02     3.29858e+00
    184    2     277     9.02887e-01     3.29784e+02     3.29806e+00
    185    1     278     9.03442e-01     3.29782e+02     3.29843e+00
   Restart performed 
    186    2     280     9.03325e-01     3.31636e+02     3.31649e+00
    187    3     283     9.03839e-01     3.31612e+02     3.31669e+00
    188    3     286     9.03817e-01     3.31596e+02     3.31598e+00
    189    2     288     9.02919e-01     3.31418e+02     3.31517e+00
    190    2     290     9.03518e-01     3.31405e+02     3.31471e+00
    191    1     291     9.03206e-01     3.30563e+02     3.30597e+00
    192    1     292     9.03373e-01     3.30452e+02     3.30470e+00
    193    1     293     9.02462e-01     3.29763e+02     3.29863e+00
    194    1     294     9.03856e-01     3.29596e+02     3.29750e+00
    195    2     296     9.03341e-01     3.29569e+02     3.29626e+00
    196    1     297     9.03518e-01     3.29562e+02     3.29582e+00
   Restart performed 
    197    1     298     9.03276e-01     3.30895e+02     3.30922e+00
    198    3     301     9.03417e-01     3.30882e+02     3.30898e+00
    199    3     304     9.03585e-01     3.30881e+02     3.30899e+00
    200    2     306     9.02809e-01     3.30580e+02     3.30665e+00
    201    2     308     9.03565e-01     3.30550e+02     3.30634e+00
    202    2     310     9.03516e-01     3.30548e+02     3.30553e+00
    203    2     312     9.03571e-01     3.30546e+02     3.30552e+00
   Restart performed 
    204    2     314     9.03621e-01     3.31516e+02     3.31522e+00
    205    4     318     9.03652e-01     3.31516e+02     3.31519e+00
    206    3     321     9.03809e-01     3.31515e+02     3.31533e+00
    207    2     323     9.02844e-01     3.31090e+02     3.31197e+00
    208    2     325     9.03633e-01     3.31062e+02     3.31149e+00
    209    1     326     9.03071e-01     3.30545e+02     3.30607e+00
    210    1     327     9.03442e-01     3.30453e+02     3.30494e+00
    211    1     328     9.02222e-01     3.29995e+02     3.30130e+00
    212    1     329     9.03516e-01     3.29855e+02     3.29999e+00
    213    2     331     9.02789e-01     3.29825e+02     3.29905e+00
    214    1     332     9.03365e-01     3.29798e+02     3.29862e+00
   Restart performed 
    215    2     334     9.03193e-01     3.31483e+02     3.31502e+00
    216    3     337     9.03387e-01     3.31481e+02     3.31503e+00
    217    4     341     9.03438e-01     3.31480e+02     3.31486e+00
    218    1     342     8.96637e-01     3.31258e+02     3.32010e+00
    219    1     343     9.07519e-01     3.29380e+02     3.30594e+00
    220    2     345     9.02575e-01     3.28339e+02     3.28884e+00
    221    2     347     9.02847e-01     3.28062e+02     3.28092e+00
   Restart performed 
    222    1     348     9.02513e-01     3.35823e+02     3.35860e+00
    223    2     350     9.02614e-01     3.35547e+02     3.35558e+00
    224    2     352     9.02332e-01     3.34835e+02     3.34866e+00
    225    2     354     9.01897e-01     3.33744e+02     3.33792e+00
    226    2     356     9.03038e-01     3.33450e+02     3.33577e+00
    227    1     357     9.01874e-01     3.32352e+02     3.32481e+00
    228    1     358     9.03469e-01     3.32293e+02     3.32469e+00
    229    1     359     9.01685e-01     3.31520e+02     3.31717e+00
    230    1     360     9.02938e-01     3.31440e+02     3.31579e+00
    231    1     361     9.01597e-01     3.31212e+02     3.31361e+00
    232    1     362     9.02711e-01     3.31157e+02     3.31281e+00
    233    1     363     9.01537e-01     3.30985e+02     3.31115e+00
    234    1     364     9.01859e-01     3.30937e+02     3.30973e+00
    235    1     365     9.01547e-01     3.30696e+02     3.30731e+00
    236    2     367     9.01415e-01     3.30544e+02     3.30558e+00
    237    1     368     9.01733e-01     3.30438e+02     3.30473e+00
    238    1     369     9.02617e-01     3.30418e+02     3.30516e+00
    239    2     371     9.02538e-01     3.30404e+02     3.30413e+00
   Restart performed 
    240    1     372     9.02831e-01     3.32215e+02     3.32248e+00
    241    3     375     9.02941e-01     3.31984e+02     3.31996e+00
    242    3     378     9.03172e-01     3.31924e+02     3.31950e+00
    243    2     380     9.02459e-01     3.31547e+02     3.31626e+00
    244    2     382     9.03047e-01     3.31530e+02     3.31595e+00
    245    1     383     9.02751e-01     3.31310e+02     3.31343e+00
    246    1     384     9.02751e-01     3.31243e+02     3.31244e+00
    247    2     386     9.02589e-01     3.31185e+02     3.31203e+00
    248    1     387     9.02999e-01     3.30997e+02     3.31042e+00
    249    2     389     9.03068e-01     3.30985e+02     3.30993e+00
    250    1     390     9.03413e-01     3.30936e+02     3.30974e+00
    251    2     392     9.03394e-01     3.30928e+02     3.30930e+00
    252    2     394     9.03384e-01     3.30926e+02     3.30927e+00
    253    2     396     9.03430e-01     3.30925e+02     3.30930e+00
   Restart performed 
    254    1     397     9.03637e-01     3.30567e+02     3.30590e+00
    255    3     400     9.03698e-01     3.30557e+02     3.30563e+00
    256    3     403     9.03746e-01     3.30553e+02     3.30558e+00
    257    3     406     9.03539e-01     3.30551e+02     3.30574e+00
   Restart performed 
    258    2     408     9.03701e-01     3.31841e+02     3.31859e+00
    259    2     410     9.03409e-01     3.31222e+02     3.31255e+00
    260    2     412     9.03713e-01     3.30977e+02     3.31011e+00
    261    2     414     9.02973e-01     3.30727e+02     3.30809e+00
    262    2     416     9.03139e-01     3.30704e+02     3.30722e+00
    263    1     417     9.04248e-01     3.30748e+02     3.30871e+00
    264    2     419     9.03553e-01     3.30686e+02     3.30763e+00
   Restart performed 
    265    1     420     9.03392e-01     3.32133e+02     3.32151e+00
    266    3     423     9.03567e-01     3.32034e+02     3.32053e+00
    267    2     425     9.04716e-01     3.31547e+02     3.31674e+00
    268    2     427     9.03689e-01     3.31391e+02     3.31505e+00
    269    2     429     9.03686e-01     3.31367e+02     3.31368e+00
    270    2     431     9.03707e-01     3.31361e+02     3.31363e+00
    271    2     433     9.03809e-01     3.31357e+02     3.31368e+00
    272    2     435     9.03770e-01     3.31355e+02     3.31360e+00
    273    2     437     9.03897e-01     3.31354e+02     3.31369e+00
   Restart performed 
    274    1     438     9.03347e-01     3.29696e+02     3.29757e+00
    275    3     441     9.03646e-01     3.29666e+02     3.29699e+00
    276    3     444     9.04092e-01     3.29648e+02     3.29697e+00
    277    3     447     9.03875e-01     3.29646e+02     3.29670e+00
   Restart performed 
    278    2     449     9.03964e-01     3.31949e+02     3.31959e+00
    279    2     451     9.03819e-01     3.31173e+02     3.31189e+00
    280    2     453     9.03928e-01     3.30932e+02     3.30944e+00
    281    2     455     9.03361e-01     3.30912e+02     3.30974e+00
    282    2     457     9.03657e-01     3.30906e+02     3.30939e+00
   Restart performed 
    283    2     459     9.03612e-01     3.31238e+02     3.31243e+00
    284    3     462     9.03650e-01     3.31229e+02     3.31233e+00
    285    3     465     9.03806e-01     3.31227e+02     3.31244e+00
    286    1     466     8.96584e-01     3.30603e+02     3.31402e+00
    287    1     467     9.07742e-01     3.29148e+02     3.30392e+00
    288    2     469     9.02928e-01     3.28252e+02     3.28782e+00
    289    1     470     9.03077e-01     3.27566e+02     3.27582e+00
   Restart performed 
    290    2     472     9.02921e-01     3.30615e+02     3.30632e+00
    291    3     475     9.03236e-01     3.30595e+02     3.30630e+00
    292    3     478     9.03342e-01     3.30588e+02     3.30599e+00
    293    3     481     9.03081e-01     3.30585e+02     3.30614e+00
   Restart performed 
    294    2     483     9.03327e-01     3.32372e+02     3.32399e+00
    295    2     485     9.03271e-01     3.31229e+02     3.31235e+00
    296    2     487     9.03693e-01     3.31014e+02     3.31061e+00
    297    2     489     9.02483e-01     3.31026e+02     3.31160e+00
    298    2     491     9.03462e-01     3.30791e+02     3.30899e+00
    299    1     492     9.03240e-01     3.30759e+02     3.30783e+00
    300    2     494     9.03268e-01     3.30716e+02     3.30720e+00
    301    1     495     9.03594e-01     3.30711e+02     3.30748e+00
   Restart performed 
    302    2     497     9.03532e-01     3.31460e+02     3.31467e+00
    303    3     500     9.03693e-01     3.31457e+02     3.31475e+00
    304    2     502     9.04880e-01     3.31332e+02     3.31463e+00
    305    2     504     9.03868e-01     3.31196e+02     3.31308e+00
    306    2     506     9.03755e-01     3.31183e+02     3.31196e+00
    307    2     508     9.03774e-01     3.31179e+02     3.31181e+00
    308    2     510     9.03748e-01     3.31176e+02     3.31179e+00
   Restart performed 
    309    2     512     9.03891e-01     3.31804e+02     3.31820e+00
    310    2     514     9.04148e-01     3.31446e+02     3.31475e+00
    311    2     516     9.04265e-01     3.31221e+02     3.31234e+00
    312    2     518     9.03523e-01     3.31084e+02     3.31166e+00
    313    2     520     9.04006e-01     3.31078e+02     3.31131e+00
    314    1     521     9.02875e-01     3.30931e+02     3.31056e+00
    315    1     522     9.03707e-01     3.30804e+02     3.30896e+00
    316    2     524     9.03378e-01     3.30772e+02     3.30809e+00
    317    1     525     9.03517e-01     3.30768e+02     3.30784e+00
   Restart performed 
    318    1     526     9.03337e-01     3.30139e+02     3.30159e+00
    319    4     530     9.03346e-01     3.30132e+02     3.30133e+00
    320    3     533     9.03566e-01     3.30116e+02     3.30141e+00
    321    3     536     9.03419e-01     3.30115e+02     3.30131e+00
    322    2     538     9.03699e-01     3.30113e+02     3.30144e+00
   Restart performed 
    323    1     539     9.02984e-01     3.27333e+02     3.27412e+00
    324    2     541     9.04372e-01     3.27179e+02     3.27333e+00
    325    3     544     9.04175e-01     3.27153e+02     3.27174e+00
    326    2     546     9.03613e-01     3.27135e+02     3.27197e+00
   Restart performed 
    327    2     548     9.03867e-01     3.32421e+02     3.32449e+00
    328    2     550     9.03652e-01     3.31181e+02     3.31205e+00
    329    2     552     9.03963e-01     3.30906e+02     3.30941e+00
    330    2     554     9.03439e-01     3.30877e+02     3.30935e+00
    331    2     556     9.03581e-01     3.30678e+02     3.30693e+00
    332    2     558     9.03757e-01     3.30672e+02     3.30691e+00
    333    1     559     9.03420e-01     3.30587e+02     3.30625e+00
    334    1     560     9.03407e-01     3.30576e+02     3.30577e+00
    335    1     561     9.03153e-01     3.30381e+02     3.30409e+00
    336    1     562     9.03231e-01     3.30369e+02     3.30378e+00
    337    1     563     9.03015e-01     3.30278e+02     3.30302e+00
    338    2     565     9.03134e-01     3.30260e+02     3.30273e+00
    339    1     566     9.03768e-01     3.30250e+02     3.30320e+00
    340    2     568     9.03633e-01     3.30241e+02     3.30256e+00
   Restart performed 
    341    2     570     9.03727e-01     3.31498e+02     3.31508e+00
    342    3     573     9.03865e-01     3.31478e+02     3.31493e+00
    343    4     577     9.03899e-01     3.31473e+02     3.31477e+00
    344    2     579     9.03164e-01     3.31464e+02     3.31545e+00
    345    2     581     9.03582e-01     3.31454e+02     3.31501e+00
    346    1     582     9.03799e-01     3.31403e+02     3.31427e+00
    347    1     583     9.02908e-01     3.31355e+02     3.31454e+00
    348    2     585     9.02850e-01     3.31241e+02     3.31248e+00
    349    1     586     9.03464e-01     3.31205e+02     3.31273e+00
    350    1     587     9.03404e-01     3.31037e+02     3.31044e+00
    351    1     588     9.03697e-01     3.31019e+02     3.31052e+00
    352    2     590     9.03557e-01     3.31013e+02     3.31028e+00
    353    2     592     9.03706e-01     3.31009e+02     3.31026e+00
   Restart performed 
    354    2     594     9.03736e-01     3.31714e+02     3.31717e+00
    355    3     597     9.03939e-01     3.31652e+02     3.31675e+00
    356    3     600     9.03992e-01     3.31647e+02     3.31652e+00
    357    1     601     8.96910e-01     3.31221e+02     3.32004e+00
    358    2     603     9.00124e-01     3.30316e+02     3.30675e+00
    359    2     605     9.00790e-01     3.30022e+02     3.30096e+00
    360    1     606     9.02825e-01     3.29916e+02     3.30142e+00
    361    2     608     9.02543e-01     3.29857e+02     3.29889e+00
    362    1     609     9.02992e-01     3.29839e+02     3.29889e+00
   Restart performed 
    363    2     611     9.03040e-01     3.31745e+02     3.31751e+00
    364    2     613     9.04671e-01     3.31698e+02     3.31879e+00
    365    3     616     9.04539e-01     3.31487e+02     3.31502e+00
    366    2     618     9.03628e-01     3.31426e+02     3.31527e+00
    367    2     620     9.03508e-01     3.31333e+02     3.31347e+00
    368    1     621     9.03596e-01     3.31244e+02     3.31254e+00
    369    1     622     9.03105e-01     3.31213e+02     3.31267e+00
    370    2     624     9.02981e-01     3.31148e+02     3.31162e+00
    371    1     625     9.03523e-01     3.31133e+02     3.31193e+00
   Restart performed 
    372    1     626     9.03217e-01     3.30012e+02     3.30046e+00
    373    3     629     9.03702e-01     3.29994e+02     3.30048e+00
    374    3     632     9.03849e-01     3.29991e+02     3.30007e+00
    375    3     635     9.03754e-01     3.29991e+02     3.30001e+00
   Restart performed 
    376    2     637     9.03800e-01     3.32079e+02     3.32084e+00
    377    3     640     9.03864e-01     3.31900e+02     3.31907e+00
    378    4     644     9.03882e-01     3.31795e+02     3.31797e+00
    379    2     646     9.03084e-01     3.31728e+02     3.31816e+00
    380    2     648     9.03509e-01     3.31712e+02     3.31759e+00
    381    1     649     9.03696e-01     3.31512e+02     3.31533e+00
    382    2     651     9.03382e-01     3.31430e+02     3.31465e+00
    383    1     652     9.03696e-01     3.31373e+02     3.31407e+00
    384    2     654     9.03600e-01     3.31364e+02     3.31374e+00
    385    1     655     9.03535e-01     3.31149e+02     3.31156e+00
    386    1     656     9.03947e-01     3.31135e+02     3.31181e+00
    387    1     657     9.03391e-01     3.31043e+02     3.31105e+00
    388    1     658     9.03777e-01     3.31026e+02     3.31069e+00
    389    1     659     9.03310e-01     3.30838e+02     3.30890e+00
    390    1     660     9.03776e-01     3.30814e+02     3.30865e+00
    391    1     661     9.03430e-01     3.30696e+02     3.30735e+00
    392    1     662     9.03926e-01     3.30668e+02     3.30723e+00
    393    1     663     9.03441e-01     3.30557e+02     3.30611e+00
    394    1     664     9.03868e-01     3.30537e+02     3.30584e+00
    395    2     666     9.03745e-01     3.30533e+02     3.30547e+00
    396    2     668     9.03810e-01     3.30532e+02     3.30539e+00
   Restart performed 
    397    1     669     9.03898e-01     3.30027e+02     3.30037e+00
    398    3     672     9.03987e-01     3.30014e+02     3.30024e+00
    399    3     675     9.04130e-01     3.30009e+02     3.30025e+00
    400    3     678     9.04009e-01     3.30009e+02     3.30022e+00
   Restart performed 
    401    2     680     9.04112e-01     3.31963e+02     3.31975e+00
    402    2     682     9.03639e-01     3.30966e+02     3.31018e+00
    403    2     684     9.04146e-01     3.30691e+02     3.30747e+00
    404    2     686     9.03526e-01     3.30671e+02     3.30740e+00
    405    1     687     9.03443e-01     3.30125e+02     3.30135e+00
    406    1     688     9.02885e-01     3.29709e+02     3.29771e+00
    407    1     689     9.01362e-01     3.29093e+02     3.29262e+00
    408    1     690     9.03620e-01     3.28440e+02     3.28691e+00
    409    2     692     9.02383e-01     3.28297e+02     3.28434e+00
    410    1     693     9.03138e-01     3.28235e+02     3.28319e+00
   Restart performed 
    411    2     695     9.02999e-01     3.31573e+02     3.31588e+00
    412    3     698     9.03369e-01     3.31551e+02     3.31592e+00
    413    3     701     9.03472e-01     3.31548e+02     3.31560e+00
    414    2     703     9.02827e-01     3.31289e+02     3.31360e+00
    415    2     705     9.03249e-01     3.31277e+02     3.31324e+00
    416    1     706     9.03626e-01     3.31179e+02     3.31221e+00
    417    1     707     9.03042e-01     3.30957e+02     3.31021e+00
    418    2     709     9.03110e-01     3.30918e+02     3.30926e+00
    419    1     710     9.03469e-01     3.30898e+02     3.30937e+00
    420    2     712     9.03575e-01     3.30890e+02     3.30902e+00
    421    2     714     9.03622e-01     3.30887e+02     3.30892e+00
    422    2     716     9.03711e-01     3.30885e+02     3.30895e+00
   Restart performed 
    423    2     718     9.03733e-01     3.31458e+02     3.31460e+00
    424    4     722     9.03778e-01     3.31457e+02     3.31462e+00
    425    3     725     9.03955e-01     3.31457e+02     3.31476e+00
    426    2     727     9.02981e-01     3.31189e+02     3.31297e+00
    427    2     729     9.03693e-01     3.31167e+02     3.31245e+00
    428    1     730     9.03668e-01     3.30873e+02     3.30875e+00
    429    2     732     9.03329e-01     3.30584e+02     3.30622e+00
    430    1     733     9.03581e-01     3.30562e+02     3.30589e+00
    431    1     734     9.03311e-01     3.30476e+02     3.30506e+00
    432    1     735     9.03240e-01     3.30459e+02     3.30467e+00
    433    2     737     9.03219e-01     3.30444e+02     3.30446e+00
    434    2     739     9.03455e-01     3.30439e+02     3.30465e+00
   Restart performed 
    435    1     740     9.03445e-01     3.30356e+02     3.30357e+00
    436    3     743     9.03797e-01     3.30338e+02     3.30377e+00
    437    3     746     9.03887e-01     3.30336e+02     3.30345e+00
    438    3     749     9.03815e-01     3.30336e+02     3.30343e+00
   Restart performed 
    439    3     752     9.03845e-01     3.31788e+02     3.31791e+00
    440    2     754     9.04594e-01     3.31257e+02     3.31340e+00
    441    3     757     9.04384e-01     3.30810e+02     3.30833e+00
    442    2     759     9.03339e-01     3.30748e+02     3.30864e+00
    443    2     761     9.03861e-01     3.30736e+02     3.30794e+00
    444    1     762     9.02914e-01     3.30041e+02     3.30146e+00
    445    1     763     9.03291e-01     3.29835e+02     3.29877e+00
    446    1     764     9.02709e-01     3.29599e+02     3.29664e+00
    447    1     765     9.03315e-01     3.29495e+02     3.29562e+00
    448    2     767     9.02925e-01     3.29458e+02     3.29501e+00
    449    1     768     9.03198e-01     3.29441e+02     3.29471e+00
   Restart performed 
    450    2     770     9.03262e-01     3.30868e+02     3.30875e+00
    451    3     773     9.03432e-01     3.30863e+02     3.30882e+00
    452    3     776     9.03570e-01     3.30861e+02     3.30877e+00
    453    3     779     9.03505e-01     3.30861e+02     3.30868e+00
   Restart performed 
    454    2     781     9.03655e-01     3.31993e+02     3.32010e+00
    455    2     783     9.03895e-01     3.31635e+02     3.31661e+00
    456    2     785     9.04033e-01     3.31448e+02     3.31463e+00
    457    2     787     9.03278e-01     3.31406e+02     3.31489e+00
    458    2     789     9.03473e-01     3.31396e+02     3.31418e+00
   Restart performed 
    459    2     791     9.03642e-01     3.31685e+02     3.31703e+00
    460    3     794     9.03656e-01     3.31570e+02     3.31572e+00
    461    3     797     9.03792e-01     3.31568e+02     3.31583e+00
    462    2     799     9.03025e-01     3.31385e+02     3.31470e+00
    463    2     801     9.03662e-01     3.31365e+02     3.31436e+00
    464    1     802     9.03152e-01     3.30712e+02     3.30769e+00
    465    1     803     9.03464e-01     3.30594e+02     3.30629e+00
    466    2     805     9.03251e-01     3.30558e+02     3.30582e+00
    467    1     806     9.03482e-01     3.30552e+02     3.30578e+00
   Restart performed 
    468    2     808     9.03500e-01     3.31391e+02     3.31393e+00
    469    3     811     9.03712e-01     3.31389e+02     3.31412e+00
    470    4     815     9.03781e-01     3.31388e+02     3.31395e+00
    471    2     817     9.03080e-01     3.31269e+02     3.31347e+00
    472    2     819     9.03619e-01     3.31255e+02     3.31315e+00
    473    1     820     9.03729e-01     3.30754e+02     3.30767e+00
    474    1     821     9.03013e-01     3.30734e+02     3.30813e+00
    475    2     823     9.02952e-01     3.30663e+02     3.30670e+00
    476    1     824     9.03487e-01     3.30640e+02     3.30699e+00
   Restart performed 
    477    2     826     9.03534e-01     3.31833e+02     3.31838e+00
    478    3     829     9.03654e-01     3.31681e+02     3.31694e+00
    479    3     832     9.03827e-01     3.31679e+02     3.31698e+00
    480    2     834     9.03073e-01     3.31415e+02     3.31499e+00
    481    2     836     9.03574e-01     3.31403e+02     3.31458e+00
    482    2     838     9.03615e-01     3.31399e+02     3.31404e+00
    483    1     839     9.03962e-01     3.31372e+02     3.31410e+00
    484    2     841     9.03808e-01     3.31353e+02     3.31370e+00
    485    1     842     9.03623e-01     3.31344e+02     3.31364e+00
    486    1     843     9.03646e-01     3.31239e+02     3.31242e+00
    487    2     845     9.03529e-01     3.31230e+02     3.31242e+00
    488    2     847     9.03697e-01     3.31226e+02     3.31245e+00
    489    2     849     9.03720e-01     3.31226e+02     3.31228e+00
   Restart performed 
    490    2     851     9.03812e-01     3.31761e+02     3.31771e+00
    491    2     853     9.04359e-01     3.30764e+02     3.30824e+00
    492    2     855     9.04350e-01     3.30606e+02     3.30607e+00
    493    2     857     9.03743e-01     3.30576e+02     3.30643e+00
    494    2     859     9.03966e-01     3.30563e+02     3.30588e+00
   Restart performed 
    495    2     861     9.03844e-01     3.31220e+02     3.31233e+00
    496    3     864     9.03978e-01     3.31217e+02     3.31232e+00
    497    4     868     9.04031e-01     3.31217e+02     3.31222e+00
    498    1     869     8.96382e-01     3.30616e+02     3.31462e+00
    499    1     870     9.08204e-01     3.30079e+02     3.31397e+00
    500    2     872     9.02548e-01     3.28824e+02     3.29447e+00
 
 *** ERROR ***
 Scp did not converge within maximum number of iterations.
 
 
  FINAL SUMMARY
  -------------
  Number of iterations: 500
  Total number of model evaluations: 872

  Objective(s):
    [  1] Name: Objective
          Value : 1.53886e-01
 
  Constraint(s):
    [  1] Name: Global Von-Mises Stress Constraint
                             Value: 4.28824e+02 <= UB: 1.00000e+02  Deviation: 328.824 % NOTE: This is an approximation to the actual value: 434.591. The bound is not satisfied.
 
 *** WARNING ***
 The final iterate does not satisfy all constraints (see summary above).
 You can now relax the violated constraints and restart from the given iterate
 by entering RELOAD_DENSITY=TRUE.
 
 ----------------------------------------------------------------------
 --> Topology Optimizer finished with errors
     Total time:  0h 48m 53s
     CPU time:    0h 2m 5s
     Peak Memory: 50508 K
     I/O Read:    22277231308 Bytes
     I/O Write:   605272121 Bytes
 ----------------------------------------------------------------------
